3
32
56
40	31
1	1	9	6	
2	3	6	12	12	5	28	2	
3	3	8	8	12	5	31	3	
4	3	6	10	7	8	24	3	
5	1	8	10	
6	1	16	6	
7	2	16	8	16	3	
8	2	4	11	28	3	
9	3	5	13	10	5	12	4	
10	2	13	8	9	4	
11	1	26	4	
12	2	4	6	29	3	
13	3	7	15	6	15	5	9	
14	1	14	7	
15	2	11	8	6	7	
16	1	4	15	
17	1	14	7	
18	1	16	2	
19	3	6	11	6	11	27	3	
20	1	11	5	
21	1	6	7	
22	2	9	7	7	7	
23	1	12	4	
24	2	10	6	10	4	
25	3	14	7	10	6	12	5	
26	1	31	3	
27	1	8	6	
28	2	5	16	4	9	
29	1	18	2	
30	1	6	14	
31	2	15	6	14	4	
32	2	7	15	10	7	
